(declare-fun var0 () String)
(declare-fun var1 () String)
(declare-fun var2 () String)
(declare-fun var3 () String)
(declare-fun var4 () String)
(declare-fun var5 () String)
(declare-fun var6 () String)
(declare-fun var7 () String)
(declare-fun var8 () String)
(declare-fun var9 () String)
(declare-fun var10 () String)
(declare-fun var11 () String)
(declare-fun var12 () String)
(declare-fun var13 () String)
(declare-fun var14 () String)
(declare-fun var15 () String)
(declare-fun var16 () String)
(declare-fun var17 () String)
(declare-fun var18 () String)
(declare-fun var19 () String)
(declare-fun var20 () String)
(declare-fun var21 () String)
(declare-fun var22 () String)
(declare-fun var23 () String)
(declare-fun var24 () String)
(declare-fun var25 () String)
(declare-fun var26 () String)
(declare-fun var27 () String)
(declare-fun var28 () String)
(declare-fun var29 () String)
(declare-fun var30 () String)
(declare-fun var31 () String)
(declare-fun var32 () String)
(declare-fun var33 () String)
(declare-fun var34 () String)
(declare-fun var35 () String)
(declare-fun var36 () String)
(declare-fun var37 () String)
(declare-fun var38 () String)
(declare-fun var39 () String)
(declare-fun var40 () String)
(declare-fun var41 () String)
(declare-fun var42 () String)
(declare-fun var43 () String)
(declare-fun var44 () String)
(declare-fun var45 () String)
(declare-fun var46 () String)
(declare-fun var47 () String)
(declare-fun var48 () String)
(declare-fun var49 () String)
(declare-fun var50 () String)
(declare-fun var51 () String)
(declare-fun var52 () String)
(declare-fun var53 () String)
(declare-fun var54 () String)
(declare-fun var55 () String)
(declare-fun var56 () String)
(declare-fun var57 () String)
(declare-fun var58 () String)
(declare-fun var59 () String)
(declare-fun var60 () String)
(assert (= var0 (Concat var1 var2)))
(assert (= var2 (Concat var3 var4)))
(assert (= var4 (Concat var5 var6)))
(assert (= var6 (Concat var7 var8)))
(assert (= var8 (Concat var9 var10)))
(assert (= var10 (Concat var11 var12)))
(assert (= var12 (Concat var13 var14)))
(assert (= var14 (Concat var15 var16)))
(assert (= var16 (Concat var17 var18)))
(assert (= var18 (Concat var19 var20)))
(assert (= var20 (Concat var21 var22)))
(assert (= var22 (Concat var23 var24)))
(assert (= var24 (Concat var25 var26)))
(assert (= var26 (Concat var27 var28)))
(assert (= var28 (Concat var29 var30)))
(assert (= var30 (Concat var31 var32)))
(assert (= var32 (Concat var33 var34)))
(assert (= var34 (Concat var35 var36)))
(assert (= var36 (Concat var37 var38)))
(assert (= var38 (Concat var39 var40)))
(assert (= var40 (Concat var41 var42)))
(assert (= var42 (Concat var43 var44)))
(assert (= var44 (Concat var45 var46)))
(assert (= var46 (Concat var47 var48)))
(assert (= var48 (Concat var49 var50)))
(assert (= var50 (Concat var51 var52)))
(assert (= var52 (Concat var53 var54)))
(assert (= var54 (Concat var55 var56)))
(assert (= var56 (Concat var57 var58)))
(assert (= var58 (Concat var59 var60)))
(assert (= var0 "solution"))
(assert (= "5" (CharAt var13 518)))
(assert (= "@" (CharAt var37 554)))
(assert (= "!" (CharAt var39 653)))
(assert (= "<" (CharAt var26 457)))
(assert (= "d" (CharAt var23 372)))
(assert (= "+" (CharAt var42 889)))
(assert (= "l" (CharAt var37 715)))
(assert (= "u" (CharAt var39 125)))
(assert (= "F" (CharAt var0 753)))
(assert (= "}" (CharAt var0 209)))
(assert (= ":" (CharAt var48 291)))
(assert (= "X" (CharAt var33 428)))
(assert (= "`" (CharAt var60 193)))
(assert (= "?" (CharAt var30 325)))
(assert (= "!" (CharAt var26 400)))
(assert (= "j" (CharAt var27 286)))
(assert (= "t" (CharAt var4 164)))
(assert (= "j" (CharAt var42 536)))
(assert (= "K" (CharAt var21 651)))
(assert (= "x" (CharAt var7 934)))
(assert (= "T" (CharAt var59 99)))
(assert (= "p" (CharAt var17 915)))
(assert (= "[" (CharAt var50 592)))
(assert (= "x" (CharAt var41 624)))
(assert (= "(" (CharAt var14 451)))
(assert (= "#" (CharAt var2 687)))
(assert (= "w" (CharAt var56 994)))
(assert (= "T" (CharAt var34 943)))
(assert (= "@" (CharAt var22 56)))
(assert (= "*" (CharAt var17 518)))
(assert (= "*" (CharAt var35 683)))
(assert (= "X" (CharAt var23 156)))
(assert (= "%" (CharAt var25 599)))
(assert (= "P" (CharAt var55 126)))
(assert (= "v" (CharAt var0 343)))
(assert (= "9" (CharAt var5 851)))
(assert (= "Q" (CharAt var24 611)))
(assert (= "]" (CharAt var3 293)))
(assert (= ";" (CharAt var41 955)))
(assert (= "1" (CharAt var27 446)))
(assert (= "I" (CharAt var20 705)))
(assert (= "E" (CharAt var2 798)))
(assert (= "k" (CharAt var6 951)))
(assert (= "u" (CharAt var54 488)))
(assert (= "|" (CharAt var13 550)))
(assert (= "t" (CharAt var16 195)))
(assert (= "T" (CharAt var21 848)))
(assert (= "[" (CharAt var46 896)))
(assert (= "Z" (CharAt var15 733)))
(assert (= "_" (CharAt var27 696)))
(assert (= "D" (CharAt var60 38)))
(assert (= "I" (CharAt var10 856)))
(assert (= "l" (CharAt var17 883)))
(assert (= "N" (CharAt var33 4)))
(assert (= "S" (CharAt var17 40)))
(assert (= "&" (CharAt var54 499)))
(assert (= "w" (CharAt var37 590)))
(assert (= "%" (CharAt var9 962)))
(assert (= "7" (CharAt var15 808)))
(assert (= "$" (CharAt var50 630)))
(assert (= "t" (CharAt var49 83)))
(assert (= "T" (CharAt var3 474)))
(assert (= "h" (CharAt var9 26)))
(assert (= "j" (CharAt var22 877)))
(assert (= "#" (CharAt var20 38)))
(assert (= "=" (CharAt var60 135)))
(assert (= "h" (CharAt var41 429)))
(assert (= "2" (CharAt var58 855)))
(assert (= "z" (CharAt var38 698)))
(assert (= "7" (CharAt var38 384)))
(assert (= "H" (CharAt var16 177)))
(assert (= "H" (CharAt var30 702)))
(assert (= "<" (CharAt var42 13)))
(assert (= "r" (CharAt var10 903)))
(assert (= "+" (CharAt var18 293)))
(assert (= "T" (CharAt var19 975)))
(assert (= "`" (CharAt var29 839)))
(assert (= "^" (CharAt var53 837)))
(assert (= "l" (CharAt var60 695)))
(assert (= "=" (CharAt var36 518)))
(assert (= "I" (CharAt var15 137)))
(assert (= "O" (CharAt var58 412)))
(assert (= "l" (CharAt var24 379)))
(assert (= "c" (CharAt var10 653)))
(assert (= "y" (CharAt var33 354)))
(assert (= "w" (CharAt var54 669)))
(assert (= "Q" (CharAt var6 554)))
(assert (= "Z" (CharAt var55 842)))
(assert (= "G" (CharAt var19 894)))
(assert (= "N" (CharAt var54 673)))
(assert (= "W" (CharAt var33 250)))
(assert (= "T" (CharAt var10 794)))
(assert (= "|" (CharAt var2 852)))
(assert (= "V" (CharAt var12 366)))
(assert (= "g" (CharAt var8 786)))
(assert (= "B" (CharAt var44 164)))
(assert (= "u" (CharAt var44 518)))
(assert (= "-" (CharAt var4 461)))
(assert (= "x" (CharAt var3 223)))
(assert (= "#" (CharAt var5 89)))
(assert (= "G" (CharAt var35 888)))
(assert (= "y" (CharAt var17 682)))
(assert (= "h" (CharAt var39 704)))
(assert (= "]" (CharAt var3 41)))
(assert (= "<" (CharAt var33 996)))
(assert (= "L" (CharAt var38 666)))
(assert (= "v" (CharAt var49 625)))
(assert (= ">" (CharAt var5 334)))
(assert (= "{" (CharAt var49 771)))
(assert (= "v" (CharAt var49 263)))
(assert (= "X" (CharAt var7 214)))
(assert (= "l" (CharAt var31 835)))
(assert (= "4" (CharAt var32 50)))
(assert (= "[" (CharAt var57 812)))
(assert (= "f" (CharAt var53 841)))
(assert (= "U" (CharAt var42 911)))
(assert (= "l" (CharAt var9 607)))
(assert (= "q" (CharAt var7 66)))
(assert (= "r" (CharAt var16 324)))
(assert (= "s" (CharAt var37 623)))
(assert (= "c" (CharAt var41 839)))
(assert (= "," (CharAt var45 911)))
(assert (= "4" (CharAt var39 526)))
(assert (= "t" (CharAt var10 665)))
(assert (= "#" (CharAt var10 8)))
(assert (= "E" (CharAt var33 312)))
(assert (= "I" (CharAt var39 893)))
(assert (= "m" (CharAt var15 14)))
(assert (= "c" (CharAt var50 400)))
(assert (= "y" (CharAt var56 820)))
(assert (= ";" (CharAt var27 792)))
(assert (= "M" (CharAt var25 740)))
(assert (= "K" (CharAt var35 532)))
(assert (= ")" (CharAt var32 329)))
(assert (= "W" (CharAt var3 158)))
(assert (= "8" (CharAt var50 702)))
(assert (= "2" (CharAt var14 237)))
(assert (= "." (CharAt var50 300)))
(assert (= "]" (CharAt var15 917)))
(assert (= "." (CharAt var49 656)))
(assert (= "^" (CharAt var42 387)))
(assert (= "W" (CharAt var35 608)))
(assert (= "8" (CharAt var53 501)))
(assert (= "m" (CharAt var11 978)))
(assert (= "S" (CharAt var24 772)))
(assert (= "-" (CharAt var36 448)))
(assert (= "f" (CharAt var52 181)))
(assert (= "Y" (CharAt var45 330)))
(assert (= "v" (CharAt var27 92)))
(assert (= "*" (CharAt var1 498)))
(assert (= "[" (CharAt var35 365)))
(assert (= "P" (CharAt var24 310)))
(assert (= "m" (CharAt var57 784)))
(assert (= "n" (CharAt var3 698)))
(assert (= "5" (CharAt var16 959)))
(assert (= "o" (CharAt var28 932)))
(assert (= ":" (CharAt var40 760)))
(assert (= "6" (CharAt var17 132)))
(assert (= ":" (CharAt var53 242)))
(assert (= "X" (CharAt var49 989)))
(assert (= "E" (CharAt var45 935)))
(assert (= "o" (CharAt var41 175)))
(assert (= "H" (CharAt var8 256)))
(assert (= "Q" (CharAt var28 967)))
(assert (= "R" (CharAt var3 606)))
(assert (= "J" (CharAt var9 969)))
(assert (= "#" (CharAt var7 299)))
(assert (= "j" (CharAt var28 138)))
(assert (= "d" (CharAt var46 973)))
(assert (= "c" (CharAt var19 985)))
(assert (= "!" (CharAt var31 572)))
(assert (= "V" (CharAt var14 875)))
(assert (= "t" (CharAt var34 836)))
(assert (= "N" (CharAt var27 877)))
(assert (= "?" (CharAt var57 430)))
(assert (= "m" (CharAt var28 588)))
(assert (= "(" (CharAt var6 534)))
(assert (= "*" (CharAt var53 805)))
(assert (= "9" (CharAt var18 933)))
(assert (= "o" (CharAt var24 380)))
(assert (= "(" (CharAt var60 883)))
(assert (= "d" (CharAt var37 229)))
(assert (= "Y" (CharAt var42 732)))
(assert (= "=" (CharAt var53 523)))
(assert (= "&" (CharAt var19 856)))
(assert (= "." (CharAt var12 397)))
(assert (= "H" (CharAt var59 458)))
(assert (= "," (CharAt var20 851)))
(assert (= "W" (CharAt var24 264)))
(assert (= "f" (CharAt var39 618)))
(assert (= "X" (CharAt var2 739)))
(assert (= "u" (CharAt var39 984)))
(assert (= "J" (CharAt var13 564)))
(assert (= "6" (CharAt var59 94)))
(assert (= "(" (CharAt var31 852)))
(assert (= "O" (CharAt var58 501)))
(assert (= "~" (CharAt var15 506)))
(assert (= "n" (CharAt var43 906)))
(assert (= "R" (CharAt var26 449)))
(assert (= "\\" (CharAt var8 456)))
(assert (= "R" (CharAt var12 662)))
(assert (= "i" (CharAt var9 278)))
(assert (= "E" (CharAt var9 202)))
(assert (= "5" (CharAt var40 600)))
(assert (= "`" (CharAt var12 806)))
(assert (= "A" (CharAt var31 188)))
(assert (= "g" (CharAt var25 231)))
(assert (= "F" (CharAt var40 292)))
(assert (= "#" (CharAt var25 579)))
(assert (= ")" (CharAt var8 626)))
(assert (= "2" (CharAt var58 600)))
(assert (= "$" (CharAt var15 705)))
(assert (= "z" (CharAt var41 483)))
(assert (= "i" (CharAt var58 293)))
(assert (= "D" (CharAt var8 595)))
(assert (= "2" (CharAt var42 666)))
(assert (= "O" (CharAt var24 633)))
(assert (= "o" (CharAt var51 592)))
(assert (= "G" (CharAt var34 877)))
(assert (= "8" (CharAt var27 230)))
(assert (= "<" (CharAt var21 464)))
(assert (= "g" (CharAt var59 381)))
(assert (= "4" (CharAt var37 483)))
(assert (= "P" (CharAt var57 534)))
(assert (= "e" (CharAt var32 524)))
(assert (= "i" (CharAt var25 679)))
(assert (= "1" (CharAt var13 965)))
(assert (= "]" (CharAt var16 423)))
(assert (= "r" (CharAt var14 402)))
(assert (= "?" (CharAt var30 411)))
(assert (= "f" (CharAt var7 657)))
(assert (= "!" (CharAt var46 990)))
(assert (= "(" (CharAt var29 255)))
(assert (= "d" (CharAt var30 666)))
(assert (= "e" (CharAt var25 538)))
(assert (= "9" (CharAt var12 275)))
(assert (= "0" (CharAt var29 973)))
(assert (= "f" (CharAt var16 426)))
(assert (= "6" (CharAt var39 96)))
(assert (= "a" (CharAt var56 562)))
(assert (= "V" (CharAt var57 418)))
(assert (= "m" (CharAt var55 30)))
(assert (= "n" (CharAt var39 790)))
(assert (= "n" (CharAt var33 79)))
(assert (= ">" (CharAt var54 575)))
(assert (= "&" (CharAt var52 602)))
(assert (= "1" (CharAt var30 656)))
(assert (= "t" (CharAt var40 864)))
(assert (= "&" (CharAt var0 492)))
(assert (= "%" (CharAt var23 969)))
(assert (= "u" (CharAt var8 375)))
(assert (= "6" (CharAt var1 446)))
(assert (= "E" (CharAt var11 771)))
(assert (= "/" (CharAt var32 756)))
(assert (= "l" (CharAt var22 358)))
(assert (= "6" (CharAt var23 377)))
(assert (= "y" (CharAt var39 130)))
(assert (= "W" (CharAt var14 216)))
(assert (= "?" (CharAt var1 170)))
(assert (= "~" (CharAt var9 561)))
(assert (= "O" (CharAt var25 822)))
(assert (= "x" (CharAt var19 872)))
(assert (= "m" (CharAt var54 857)))
(assert (= "Z" (CharAt var22 766)))
(assert (= "1" (CharAt var42 52)))
(assert (= "g" (CharAt var30 876)))
(assert (= "v" (CharAt var48 618)))
(assert (= "V" (CharAt var33 472)))
(assert (= "h" (CharAt var2 541)))
(assert (= "V" (CharAt var4 258)))
(assert (= "l" (CharAt var48 542)))
(assert (= "E" (CharAt var27 550)))
(assert (= "d" (CharAt var40 762)))
(assert (= "B" (CharAt var51 849)))
(assert (= "-" (CharAt var41 264)))
(assert (= "m" (CharAt var52 513)))
(assert (= "1" (CharAt var55 816)))
(assert (= "F" (CharAt var24 930)))
(assert (= "Q" (CharAt var43 182)))
(assert (= "5" (CharAt var48 140)))
(assert (= "H" (CharAt var57 126)))
(assert (= "S" (CharAt var38 568)))
(assert (= "F" (CharAt var36 326)))
(assert (= "5" (CharAt var8 424)))
(assert (= "I" (CharAt var31 683)))
(assert (= "?" (CharAt var17 982)))
(assert (= "-" (CharAt var29 657)))
(assert (= "{" (CharAt var50 283)))
(assert (= "m" (CharAt var59 825)))
(assert (= "I" (CharAt var11 791)))
(assert (= "v" (CharAt var19 506)))
(assert (= "1" (CharAt var54 203)))
(assert (= "*" (CharAt var39 828)))
(assert (= "|" (CharAt var54 127)))
(assert (= "U" (CharAt var57 293)))
(assert (= "h" (CharAt var9 305)))
(assert (= "w" (CharAt var0 258)))
(assert (= "[" (CharAt var46 394)))
(assert (= "x" (CharAt var33 436)))
(assert (= "E" (CharAt var36 93)))
(assert (= "O" (CharAt var38 590)))
(assert (= ";" (CharAt var11 885)))
(assert (= "K" (CharAt var18 793)))
(assert (= "o" (CharAt var24 663)))
(assert (= ":" (CharAt var39 279)))
(assert (= "8" (CharAt var40 90)))
(assert (= "," (CharAt var11 179)))
(assert (= "m" (CharAt var55 604)))
(assert (= "c" (CharAt var19 390)))
(assert (= "2" (CharAt var33 948)))
(assert (= "W" (CharAt var17 628)))
(assert (= "E" (CharAt var31 645)))
(assert (= "@" (CharAt var13 463)))
(assert (= "7" (CharAt var12 945)))
(assert (= "&" (CharAt var17 286)))
(assert (= "i" (CharAt var30 179)))
(assert (= ":" (CharAt var12 655)))
(assert (= "|" (CharAt var35 344)))
(assert (= "m" (CharAt var11 544)))
(assert (= "U" (CharAt var55 175)))
(assert (= "+" (CharAt var33 849)))
(assert (= "@" (CharAt var37 344)))
(assert (= "~" (CharAt var8 238)))
(assert (= "f" (CharAt var14 812)))
(assert (= "x" (CharAt var20 830)))
(assert (= "M" (CharAt var11 645)))
(assert (= "0" (CharAt var2 752)))
(assert (= "_" (CharAt var60 741)))
(assert (= "=" (CharAt var24 342)))
(assert (= "}" (CharAt var45 442)))
(assert (= "f" (CharAt var44 872)))
(assert (= "!" (CharAt var25 713)))
(assert (= "f" (CharAt var5 895)))
(assert (= "K" (CharAt var22 291)))
(assert (= "~" (CharAt var49 908)))
(assert (= "P" (CharAt var57 678)))
(assert (= ">" (CharAt var12 359)))
(assert (= "8" (CharAt var55 671)))
(assert (= "1" (CharAt var35 458)))
(assert (= "s" (CharAt var22 83)))
(assert (= "m" (CharAt var4 927)))
(assert (= "q" (CharAt var26 396)))
(assert (= "q" (CharAt var7 930)))
(assert (= "~" (CharAt var9 358)))
(assert (= "b" (CharAt var16 578)))
(assert (= "J" (CharAt var58 97)))
(assert (= "{" (CharAt var25 137)))
(assert (= "O" (CharAt var52 354)))
(assert (= "=" (CharAt var48 465)))
(assert (= "H" (CharAt var23 574)))
(assert (= "2" (CharAt var60 109)))
(assert (= "b" (CharAt var24 126)))
(assert (= "}" (CharAt var56 955)))
(assert (= "Q" (CharAt var58 983)))
(assert (= "M" (CharAt var35 429)))
(assert (= "F" (CharAt var26 651)))
(assert (= "o" (CharAt var52 55)))
(assert (= "h" (CharAt var23 609)))
(assert (= "c" (CharAt var7 534)))
(assert (= "%" (CharAt var6 654)))
(assert (= "~" (CharAt var28 890)))
(assert (= "k" (CharAt var52 607)))
(assert (= "U" (CharAt var28 861)))
(assert (= "m" (CharAt var39 371)))
(assert (= "9" (CharAt var16 948)))
(assert (= "~" (CharAt var46 140)))
(assert (= "w" (CharAt var2 329)))
(assert (= "K" (CharAt var30 674)))
(assert (= "b" (CharAt var52 46)))
(assert (= "#" (CharAt var5 357)))
(assert (= "S" (CharAt var2 648)))
(assert (= "6" (CharAt var42 641)))
(assert (= "F" (CharAt var42 112)))
(assert (= "e" (CharAt var36 945)))
(assert (= "]" (CharAt var54 280)))
(assert (= "4" (CharAt var21 137)))
(assert (= "_" (CharAt var58 376)))
(assert (= "i" (CharAt var30 781)))
(assert (= "+" (CharAt var25 83)))
(assert (= "M" (CharAt var1 157)))
(assert (= "%" (CharAt var11 103)))
(assert (= "d" (CharAt var2 491)))
(assert (= "-" (CharAt var24 13)))
(assert (= "o" (CharAt var35 339)))
(assert (= "~" (CharAt var60 3)))
(assert (= "_" (CharAt var54 251)))
(assert (= "4" (CharAt var50 491)))
(assert (= "f" (CharAt var50 49)))
(assert (= "z" (CharAt var27 208)))
(assert (= "c" (CharAt var4 255)))
(assert (= "8" (CharAt var6 573)))
(assert (= "P" (CharAt var9 820)))
(assert (= "R" (CharAt var52 142)))
(assert (= "[" (CharAt var8 1000)))
(assert (= "5" (CharAt var17 868)))
(assert (= "k" (CharAt var32 972)))
(assert (= "3" (CharAt var31 252)))
(assert (= "e" (CharAt var2 708)))
(assert (= "1" (CharAt var8 188)))
(assert (= "^" (CharAt var16 966)))
(assert (= "O" (CharAt var19 789)))
(assert (= "m" (CharAt var3 905)))
(assert (= "S" (CharAt var55 447)))
(assert (= "@" (CharAt var10 886)))
(assert (= "+" (CharAt var10 43)))
(assert (= "4" (CharAt var38 94)))
(assert (= "\\" (CharAt var52 625)))
(assert (= "V" (CharAt var17 969)))
(assert (= "K" (CharAt var56 31)))
(assert (= "3" (CharAt var54 99)))
(assert (= "V" (CharAt var58 34)))
(assert (= "h" (CharAt var14 754)))
(assert (= "M" (CharAt var58 80)))
(assert (= "t" (CharAt var21 14)))
(assert (= "]" (CharAt var42 389)))
(assert (= "5" (CharAt var3 977)))
(assert (= "j" (CharAt var51 249)))
(assert (= "W" (CharAt var55 142)))
(assert (= ":" (CharAt var17 443)))
(assert (= "4" (CharAt var21 474)))
(assert (= "_" (CharAt var12 263)))
(assert (= "d" (CharAt var36 670)))
(assert (= "*" (CharAt var13 3)))
(assert (= "s" (CharAt var55 380)))
(assert (= "[" (CharAt var46 139)))
(assert (= "h" (CharAt var19 611)))
(assert (= "z" (CharAt var32 802)))
(assert (= "F" (CharAt var57 659)))
(assert (= "P" (CharAt var48 496)))
(assert (= "g" (CharAt var16 231)))
(assert (= "f" (CharAt var41 182)))
(assert (= "B" (CharAt var46 979)))
(assert (= "a" (CharAt var3 411)))
(assert (= "$" (CharAt var55 113)))
(assert (= "=" (CharAt var2 665)))
(assert (= "@" (CharAt var7 940)))
(assert (= "v" (CharAt var22 495)))
(assert (= "'" (CharAt var53 775)))
(assert (= "V" (CharAt var56 136)))
(assert (= "T" (CharAt var20 947)))
(assert (= "r" (CharAt var60 711)))
(assert (= "A" (CharAt var39 50)))
(assert (= "L" (CharAt var46 360)))
(assert (= "3" (CharAt var44 316)))
(assert (= "a" (CharAt var55 910)))
(assert (= "*" (CharAt var55 312)))
(assert (= "3" (CharAt var9 208)))
(assert (= "F" (CharAt var12 611)))
(assert (= "9" (CharAt var55 545)))
(assert (= "F" (CharAt var19 202)))
(assert (= "A" (CharAt var4 780)))
(assert (= "m" (CharAt var3 444)))
(assert (= "4" (CharAt var23 840)))
(assert (= "`" (CharAt var23 237)))
(assert (= "[" (CharAt var5 538)))
(assert (= "t" (CharAt var32 320)))
(assert (= "Q" (CharAt var2 707)))
(assert (= "s" (CharAt var37 666)))
(assert (= "B" (CharAt var60 378)))
(assert (= "f" (CharAt var38 121)))
(assert (= "N" (CharAt var16 918)))
(assert (= "/" (CharAt var50 231)))
(assert (= "E" (CharAt var22 461)))
(assert (= "w" (CharAt var10 392)))
(assert (= "t" (CharAt var49 532)))
(assert (= "!" (CharAt var42 146)))
(assert (= "\"" (CharAt var16 304)))
(assert (= "O" (CharAt var5 471)))
(assert (= "/" (CharAt var17 509)))
(assert (= "`" (CharAt var46 57)))
(assert (= "I" (CharAt var36 584)))
(assert (= "!" (CharAt var9 640)))
(assert (= "p" (CharAt var43 624)))
(assert (= "A" (CharAt var11 511)))
(assert (= "M" (CharAt var4 593)))
(assert (= "G" (CharAt var7 303)))
(assert (= "d" (CharAt var55 171)))
(assert (= "l" (CharAt var43 797)))
(assert (= "_" (CharAt var11 387)))
(assert (= "3" (CharAt var14 847)))
(assert (= "Y" (CharAt var28 904)))
(assert (= "N" (CharAt var29 727)))
(assert (= "(" (CharAt var51 733)))
(assert (= "H" (CharAt var26 623)))
(assert (= "U" (CharAt var52 193)))
(assert (= "^" (CharAt var1 461)))
(assert (= "Y" (CharAt var19 392)))
(assert (= "K" (CharAt var20 56)))
(assert (= "Q" (CharAt var2 481)))
(assert (= "," (CharAt var59 290)))
(assert (= "t" (CharAt var27 671)))
(assert (= "}" (CharAt var46 156)))
(assert (= "s" (CharAt var53 132)))
(assert (= "J" (CharAt var57 155)))
(assert (= "," (CharAt var50 222)))
(assert (= "\"" (CharAt var4 765)))
(assert (= "<" (CharAt var33 2)))
(assert (= "s" (CharAt var39 833)))
(assert (= "O" (CharAt var27 651)))
(assert (= "@" (CharAt var35 69)))
(assert (= "}" (CharAt var5 418)))
(assert (= "E" (CharAt var55 753)))
(assert (= "x" (CharAt var18 761)))
(assert (= "Y" (CharAt var7 215)))
(assert (= "/" (CharAt var27 521)))
(assert (= "n" (CharAt var29 547)))
(assert (= "Y" (CharAt var37 433)))
(assert (= "s" (CharAt var56 839)))
(assert (= "6" (CharAt var29 937)))
(assert (= "u" (CharAt var55 843)))
(assert (= "." (CharAt var8 31)))
(assert (= "'" (CharAt var5 231)))
(assert (= "g" (CharAt var26 821)))
(assert (= "#" (CharAt var4 725)))
(assert (= "M" (CharAt var3 29)))
(assert (= "+" (CharAt var47 149)))
(assert (= "6" (CharAt var46 334)))
(assert (= "Y" (CharAt var51 743)))
(assert (= "{" (CharAt var27 548)))
(assert (= "j" (CharAt var15 536)))
(assert (= "7" (CharAt var18 25)))
(assert (= "/" (CharAt var17 423)))
(assert (= "p" (CharAt var10 79)))
(assert (= "=" (CharAt var34 517)))
(assert (= "i" (CharAt var56 674)))
(assert (= "K" (CharAt var23 535)))
(assert (= "2" (CharAt var41 486)))
(assert (= "1" (CharAt var41 975)))
(assert (= "K" (CharAt var25 949)))
(assert (= "." (CharAt var26 286)))
(assert (= "j" (CharAt var10 18)))
(assert (= "M" (CharAt var4 803)))
(assert (= "S" (CharAt var44 409)))
(assert (= "(" (CharAt var40 210)))
(assert (= "G" (CharAt var37 21)))
(assert (= "y" (CharAt var60 61)))
(assert (= "Z" (CharAt var43 24)))
(assert (= "\\" (CharAt var41 536)))
(assert (= "D" (CharAt var31 180)))
(assert (= "_" (CharAt var56 302)))
(assert (= "1" (CharAt var24 892)))
(assert (= "f" (CharAt var20 681)))
(assert (= "R" (CharAt var19 351)))
(assert (= "a" (CharAt var28 712)))
(assert (= "F" (CharAt var37 901)))
(assert (= "S" (CharAt var55 937)))
(assert (= "g" (CharAt var19 311)))
(assert (= "?" (CharAt var19 7)))
(assert (= "t" (CharAt var50 561)))
(assert (= "N" (CharAt var37 424)))
(assert (= "2" (CharAt var56 791)))
(assert (= "Q" (CharAt var42 416)))
(assert (= "f" (CharAt var10 535)))
(assert (= "/" (CharAt var2 222)))
(assert (= "H" (CharAt var24 71)))
(assert (= "Z" (CharAt var10 965)))
(assert (= "'" (CharAt var47 829)))
(assert (= "$" (CharAt var34 575)))
(assert (= "I" (CharAt var2 38)))
(assert (= "c" (CharAt var15 288)))
(assert (= "@" (CharAt var32 859)))
(assert (= "j" (CharAt var24 318)))
(assert (= "n" (CharAt var32 482)))
(assert (= "F" (CharAt var54 952)))
(assert (= "Z" (CharAt var18 128)))
(assert (= "3" (CharAt var50 816)))
(assert (= "2" (CharAt var13 497)))
(assert (= "#" (CharAt var16 182)))
(assert (= "c" (CharAt var10 353)))
(assert (= ":" (CharAt var54 143)))
(assert (= "?" (CharAt var21 844)))
(assert (= "|" (CharAt var51 171)))
(assert (= "Z" (CharAt var58 333)))
(assert (= "?" (CharAt var32 367)))
(assert (= "g" (CharAt var7 825)))
(assert (= "Y" (CharAt var10 831)))
(assert (= "%" (CharAt var10 178)))
(assert (= "R" (CharAt var37 372)))
(assert (= "Z" (CharAt var47 795)))
(assert (= "=" (CharAt var11 136)))
(assert (= "w" (CharAt var41 253)))
(assert (= "g" (CharAt var37 828)))
(assert (= "r" (CharAt var6 930)))
(assert (= "8" (CharAt var23 555)))
(assert (= "/" (CharAt var37 3)))
(assert (= ")" (CharAt var29 169)))
(assert (= "." (CharAt var21 647)))
(assert (= "2" (CharAt var33 491)))
(assert (= "s" (CharAt var56 521)))
(assert (= "l" (CharAt var3 590)))
(assert (= "=" (CharAt var24 612)))
(assert (= "}" (CharAt var27 927)))
(assert (= "/" (CharAt var42 286)))
(assert (= "/" (CharAt var18 742)))
(assert (= "#" (CharAt var56 557)))
(assert (= "/" (CharAt var36 61)))
(assert (= "x" (CharAt var41 11)))
(assert (= "^" (CharAt var28 87)))
(assert (= "G" (CharAt var15 114)))
(assert (= "`" (CharAt var29 832)))
(assert (= "'" (CharAt var34 813)))
(assert (= "f" (CharAt var28 127)))
(assert (= "?" (CharAt var38 158)))
(assert (= "W" (CharAt var20 158)))
(assert (= "5" (CharAt var48 925)))
(assert (= "N" (CharAt var0 287)))
(assert (= "h" (CharAt var29 204)))
(assert (= "V" (CharAt var14 106)))
(assert (= "0" (CharAt var2 824)))
(assert (= "*" (CharAt var2 949)))
(assert (= "\\" (CharAt var12 10)))
(assert (= "F" (CharAt var32 184)))
(assert (= "]" (CharAt var58 968)))
(assert (= "f" (CharAt var2 429)))
(assert (= "4" (CharAt var38 362)))
(assert (= "b" (CharAt var22 956)))
(assert (= "^" (CharAt var52 832)))
(assert (= "}" (CharAt var4 651)))
(assert (= "H" (CharAt var6 324)))
(assert (= "<" (CharAt var25 345)))
(assert (= "w" (CharAt var49 862)))
(assert (= "R" (CharAt var53 299)))
(assert (= ">" (CharAt var3 128)))
(assert (= "\"" (CharAt var38 95)))
(assert (= "l" (CharAt var57 247)))
(assert (= "j" (CharAt var53 565)))
(assert (= "c" (CharAt var5 757)))
(assert (= "b" (CharAt var27 75)))
(assert (= "N" (CharAt var10 159)))
(assert (= "s" (CharAt var5 566)))
(assert (= "*" (CharAt var37 819)))
(assert (= "=" (CharAt var10 703)))
(assert (= "x" (CharAt var21 495)))
(assert (= "`" (CharAt var17 614)))
(assert (= "u" (CharAt var32 581)))
(assert (= "!" (CharAt var46 556)))
(assert (= "P" (CharAt var49 234)))
(assert (= "V" (CharAt var10 164)))
(assert (= ">" (CharAt var47 161)))
(assert (= "2" (CharAt var37 382)))
(assert (= "s" (CharAt var8 504)))
(assert (= "T" (CharAt var15 717)))
(assert (= "B" (CharAt var4 768)))
(assert (= "?" (CharAt var55 234)))
(assert (= "4" (CharAt var56 739)))
(assert (= "s" (CharAt var22 35)))
(assert (= "C" (CharAt var29 646)))
(assert (= "9" (CharAt var32 46)))
(assert (= "8" (CharAt var26 61)))
(assert (= "i" (CharAt var42 945)))
(assert (= "I" (CharAt var17 17)))
(assert (= "," (CharAt var2 37)))
(assert (= "A" (CharAt var43 697)))
(assert (= "0" (CharAt var1 190)))
(assert (= "k" (CharAt var38 59)))
(assert (= "T" (CharAt var31 931)))
(assert (= "i" (CharAt var39 942)))
(assert (= "u" (CharAt var46 472)))
(assert (= "2" (CharAt var56 643)))
(assert (= "A" (CharAt var4 9)))
(assert (= "r" (CharAt var4 992)))
(assert (= "[" (CharAt var4 145)))
(assert (= "B" (CharAt var35 987)))
(assert (= "/" (CharAt var34 80)))
(assert (= "|" (CharAt var38 101)))
(assert (= "H" (CharAt var10 766)))
(assert (= "<" (CharAt var1 315)))
(assert (= ";" (CharAt var10 969)))
(assert (= "A" (CharAt var11 761)))
(assert (= "G" (CharAt var5 58)))
(assert (= "J" (CharAt var3 548)))
(assert (= "r" (CharAt var40 266)))
(assert (= ":" (CharAt var33 382)))
(assert (= "y" (CharAt var48 860)))
(assert (= "@" (CharAt var39 395)))
(assert (= "D" (CharAt var26 759)))
(assert (= "K" (CharAt var50 38)))
(assert (= "p" (CharAt var13 358)))
(assert (= "^" (CharAt var56 283)))
(assert (= "C" (CharAt var12 617)))
(assert (= "3" (CharAt var51 736)))
(assert (= "B" (CharAt var16 903)))
(assert (= "*" (CharAt var57 543)))
(assert (= "A" (CharAt var38 887)))
(assert (= "+" (CharAt var16 894)))
(assert (= "m" (CharAt var22 512)))
(assert (= "K" (CharAt var52 92)))
(assert (= "8" (CharAt var60 725)))
(assert (= "h" (CharAt var30 191)))
(assert (= "!" (CharAt var49 153)))
(assert (= "p" (CharAt var22 468)))
(assert (= "H" (CharAt var54 268)))
(assert (= "2" (CharAt var57 898)))
(assert (= "V" (CharAt var10 498)))
(assert (= "%" (CharAt var34 497)))
(assert (= "&" (CharAt var14 223)))
(assert (= "_" (CharAt var32 533)))
(assert (= "a" (CharAt var27 231)))
(assert (= "N" (CharAt var45 128)))
(assert (= "l" (CharAt var60 310)))
(assert (= "N" (CharAt var41 103)))
(assert (= "&" (CharAt var16 515)))
(assert (= "y" (CharAt var23 159)))
(assert (= "P" (CharAt var57 164)))
(assert (= "g" (CharAt var8 668)))
(assert (= "~" (CharAt var49 486)))
(assert (= "H" (CharAt var23 165)))
(assert (= "R" (CharAt var13 378)))
(assert (= "l" (CharAt var39 537)))
(assert (= "n" (CharAt var13 30)))
(assert (= "t" (CharAt var50 403)))
(assert (= "J" (CharAt var8 202)))
(assert (= "W" (CharAt var40 677)))
(assert (= "b" (CharAt var4 549)))
(assert (= "4" (CharAt var59 183)))
(assert (= "N" (CharAt var34 951)))
(assert (= "d" (CharAt var43 824)))
(assert (= "d" (CharAt var3 486)))
(assert (= "`" (CharAt var11 703)))
(assert (= "R" (CharAt var24 606)))
(assert (= "e" (CharAt var46 797)))
(assert (= "~" (CharAt var48 413)))
(assert (= "X" (CharAt var57 557)))
(assert (= "^" (CharAt var51 453)))
(assert (= "{" (CharAt var34 867)))
(assert (= "C" (CharAt var35 326)))
(assert (= "~" (CharAt var43 280)))
(assert (= "b" (CharAt var36 301)))
(assert (= "a" (CharAt var28 278)))
(assert (= "J" (CharAt var26 902)))
(assert (= "}" (CharAt var2 936)))
(assert (= "n" (CharAt var41 258)))
(assert (= "\"" (CharAt var42 871)))
(assert (= ">" (CharAt var51 69)))
(assert (= "_" (CharAt var32 29)))
(assert (= "n" (CharAt var25 571)))
(assert (= "#" (CharAt var15 123)))
(assert (= "E" (CharAt var39 520)))
(assert (= "?" (CharAt var40 663)))
(assert (= "!" (CharAt var20 674)))
(assert (= "t" (CharAt var10 456)))
(assert (= "v" (CharAt var34 19)))
(assert (= "f" (CharAt var33 310)))
(assert (= "?" (CharAt var45 597)))
(assert (= "V" (CharAt var35 468)))
(assert (= "c" (CharAt var26 453)))
(assert (= "t" (CharAt var18 783)))
(assert (= "x" (CharAt var9 210)))
(assert (= "o" (CharAt var42 701)))
(assert (= "+" (CharAt var47 672)))
(assert (= "." (CharAt var38 185)))
(assert (= "G" (CharAt var58 848)))
(assert (= "V" (CharAt var19 579)))
(assert (= "P" (CharAt var16 15)))
(assert (= "{" (CharAt var28 749)))
(assert (= "7" (CharAt var38 641)))
(assert (= "7" (CharAt var29 653)))
(assert (= "o" (CharAt var49 909)))
(assert (= "7" (CharAt var20 433)))
(assert (= ":" (CharAt var10 398)))
(assert (= "C" (CharAt var60 36)))
(assert (= "r" (CharAt var16 872)))
(assert (= "7" (CharAt var25 122)))
(assert (= "#" (CharAt var37 253)))
(assert (= "m" (CharAt var0 962)))
(assert (= "V" (CharAt var52 226)))
(assert (= "e" (CharAt var2 842)))
(assert (= "." (CharAt var55 160)))
(assert (= "!" (CharAt var37 422)))
(assert (= "I" (CharAt var57 45)))
(assert (= "d" (CharAt var54 191)))
(assert (= "$" (CharAt var50 352)))
(assert (= "x" (CharAt var56 997)))
(assert (= "n" (CharAt var2 891)))
(assert (= "$" (CharAt var38 361)))
(assert (= "e" (CharAt var29 898)))
(assert (= "z" (CharAt var54 508)))
(assert (= "e" (CharAt var29 149)))
(assert (= "y" (CharAt var6 181)))
(assert (= "k" (CharAt var9 657)))
(assert (= "V" (CharAt var2 258)))
(assert (= "+" (CharAt var52 658)))
(assert (= "N" (CharAt var10 145)))
(assert (= "2" (CharAt var46 41)))
(assert (= "}" (CharAt var21 780)))
(assert (= "N" (CharAt var27 510)))
(assert (= "i" (CharAt var12 645)))
(assert (= "#" (CharAt var49 701)))
(assert (= "H" (CharAt var46 254)))
(assert (= "f" (CharAt var37 395)))
(assert (= "|" (CharAt var2 773)))
(assert (= "|" (CharAt var51 787)))
(assert (= "X" (CharAt var26 809)))
(assert (= "W" (CharAt var7 645)))
(assert (= "x" (CharAt var52 675)))
(assert (= "#" (CharAt var34 673)))
(assert (= "^" (CharAt var6 326)))
(assert (= "U" (CharAt var21 626)))
(assert (= "`" (CharAt var24 578)))
(assert (= "Y" (CharAt var36 893)))
(assert (= ")" (CharAt var4 714)))
(assert (= "r" (CharAt var1 944)))
(assert (= "s" (CharAt var14 16)))
(assert (= "@" (CharAt var45 529)))
(assert (= "g" (CharAt var16 953)))
(assert (= "b" (CharAt var45 791)))
(assert (= "[" (CharAt var14 256)))
(assert (= "r" (CharAt var44 893)))
(assert (= "." (CharAt var36 69)))
(assert (= "[" (CharAt var10 990)))
(assert (= "b" (CharAt var16 5)))
(assert (= "B" (CharAt var8 710)))
(assert (= "'" (CharAt var31 528)))
(assert (= ")" (CharAt var22 283)))
(assert (= "c" (CharAt var0 921)))
(assert (= "w" (CharAt var56 956)))
(assert (= "3" (CharAt var54 647)))
(assert (= "Z" (CharAt var53 357)))
(assert (= "t" (CharAt var40 642)))
(assert (= "$" (CharAt var33 815)))
(assert (= "e" (CharAt var46 61)))
(assert (= "W" (CharAt var13 891)))
(assert (= "w" (CharAt var26 40)))
(assert (= "P" (CharAt var51 139)))
(assert (= "/" (CharAt var37 278)))
(assert (= "#" (CharAt var34 851)))
(assert (= "." (CharAt var32 39)))
(assert (= "S" (CharAt var32 670)))
(assert (= "J" (CharAt var17 445)))
(assert (= "7" (CharAt var14 743)))
(assert (= ">" (CharAt var34 262)))
(assert (= "z" (CharAt var10 1)))
(assert (= "b" (CharAt var44 141)))
(assert (= "D" (CharAt var35 324)))
(assert (= "-" (CharAt var11 71)))
(assert (= "<" (CharAt var48 398)))
(assert (= "X" (CharAt var30 234)))
(assert (= ">" (CharAt var21 730)))
(assert (= ":" (CharAt var40 781)))
(assert (= "5" (CharAt var53 360)))
(assert (= ">" (CharAt var5 852)))
(assert (= "D" (CharAt var26 169)))
(assert (= "p" (CharAt var47 703)))
(assert (= "b" (CharAt var42 970)))
(assert (= "," (CharAt var4 906)))
(assert (= ";" (CharAt var56 683)))
(assert (= "a" (CharAt var11 625)))
(assert (= "7" (CharAt var7 736)))
(assert (= "r" (CharAt var26 379)))
(assert (= "<" (CharAt var37 489)))
(assert (= "b" (CharAt var23 770)))
(assert (= "C" (CharAt var34 972)))
(assert (= "3" (CharAt var30 24)))
(assert (= "'" (CharAt var11 677)))
(assert (= "W" (CharAt var28 793)))
(assert (= "H" (CharAt var26 604)))
(assert (= "F" (CharAt var47 583)))
(assert (= "r" (CharAt var44 494)))
(assert (= "&" (CharAt var46 73)))
(assert (= "9" (CharAt var57 761)))
(assert (= "u" (CharAt var2 514)))
(assert (= "'" (CharAt var24 112)))
(assert (= "u" (CharAt var36 843)))
(assert (= "W" (CharAt var34 596)))
(assert (= "w" (CharAt var42 439)))
(assert (= "S" (CharAt var16 137)))
(assert (= "f" (CharAt var12 926)))
(assert (= "%" (CharAt var46 755)))
(assert (= "%" (CharAt var33 417)))
(assert (= "K" (CharAt var2 112)))
(assert (= "]" (CharAt var31 593)))
(assert (= "{" (CharAt var20 701)))
(assert (= "1" (CharAt var27 326)))
(assert (= "g" (CharAt var12 837)))
(assert (= "n" (CharAt var58 870)))
(assert (= "X" (CharAt var29 666)))
(assert (= "n" (CharAt var34 960)))
(assert (= "O" (CharAt var10 165)))
(assert (= "V" (CharAt var54 81)))
(assert (= "B" (CharAt var47 963)))
(assert (= "K" (CharAt var50 28)))
(check-sat)